10J3M/DAT/10J3MULL-18.dat
10 3
31.3626 31.3626
40.0108 40.0108
30.6546 30.6546
43.9968 43.9968
38.8627 38.8627
47.7286 47.7286
44.9969 44.9969
45.4399 45.4399
46.8917 46.8917
0.2974 0.2974
123.414