10J3M/SOL/10J3MULL-18.sol
solution status: optimal solution found
objective value:                              103.565
x#1#2                                0.18816586600374 	(obj:0)
x#1#3                                0.81183413399626 	(obj:0)
x#2#1                               0.593855340907246 	(obj:0)
x#2#2                               0.406144659092754 	(obj:0)
x#3#3                                               1 	(obj:0)
x#4#2                                               1 	(obj:0)
x#5#3                                               1 	(obj:0)
x#6#1                                               1 	(obj:0)
x#7#2                                               1 	(obj:0)
x#8#1                                               1 	(obj:0)
x#9#1                                               1 	(obj:0)
x#10#2                                              1 	(obj:0)
z                                             103.565 	(obj:1)
